100
100
100
99
98
97
97
97
97
97
92
91
91
91
88
86
86
85
84
84
83
81
80
79
79
79
78
77
77
75
75
75
74
74
71
71
70
69
64
64
63
63
62
62
61
61
56
56
56
56
55
53
53
52
52
51
49
48
46
44
44
43
43
42
42
40
38
37
36
35
34
32
32
31
30
29
29
28
28
28
27
26
24
24
22
20
20
18
17
16
16
14
13
13
12
11
10
8
6
4
2
1
